db/data/69663070619011748719361233911590219998.z3.out
-------------------
2500.128063629
